data/OOEBPP/R750/BPP_750_75_0.1_0.7_6.txt.ins
750
75 75
1 52 18
2 52 964
3 52 314
4 52 396
5 52 694
6 52 169
7 52 910
8 52 268
9 52 17
10 52 300
11 52 33
12 52 693
13 52 597
14 52 195
15 51 755
16 51 450
17 51 476
18 51 932
19 51 49
20 51 224
21 51 800
22 51 547
23 51 534
24 50 740
25 50 942
26 50 932
27 50 249
28 50 11
29 50 111
30 50 992
31 50 396
32 50 350
33 50 976
34 50 573
35 50 863
36 50 172
37 50 919
38 50 103
39 50 806
40 50 157
41 50 837
42 50 631
43 50 41
44 50 310
45 49 736
46 49 879
47 49 718
48 49 840
49 49 405
50 49 379
51 49 987
52 49 246
53 49 765
54 49 679
55 49 328
56 49 950
57 49 630
58 49 674
59 49 622
60 49 327
61 48 999
62 48 412
63 48 795
64 48 781
65 48 400
66 48 727
67 48 332
68 48 569
69 48 106
70 48 580
71 48 770
72 48 713
73 47 852
74 47 529
75 47 163
76 47 74
77 47 569
78 47 407
79 47 493
80 47 292
81 47 689
82 47 518
83 47 98
84 47 49
85 47 185
86 47 521
87 47 656
88 46 404
89 46 354
90 46 363
91 46 260
92 46 655
93 46 15
94 46 936
95 46 922
96 46 644
97 46 812
98 46 513
99 46 811
100 46 223
101 46 999
102 46 37
103 46 840
104 46 821
105 45 442
106 45 833
107 45 313
108 45 909
109 45 315
110 45 581
111 45 285
112 45 672
113 45 741
114 45 977
115 45 405
116 45 756
117 45 233
118 45 732
119 45 142
120 45 879
121 45 906
122 45 823
123 44 645
124 44 137
125 44 983
126 44 320
127 44 991
128 44 464
129 44 621
130 44 484
131 44 11
132 44 864
133 44 421
134 44 981
135 44 826
136 44 690
137 44 914
138 44 585
139 44 947
140 43 4
141 43 228
142 43 396
143 43 293
144 43 96
145 43 928
146 43 60
147 43 135
148 43 778
149 43 622
150 43 933
151 43 827
152 42 477
153 42 59
154 42 770
155 42 520
156 42 493
157 42 237
158 42 910
159 42 106
160 42 730
161 42 426
162 42 552
163 42 415
164 42 478
165 42 370
166 42 476
167 42 374
168 42 511
169 42 314
170 41 63
171 41 274
172 41 471
173 41 834
174 41 765
175 41 422
176 41 657
177 41 163
178 41 240
179 41 380
180 41 134
181 41 867
182 41 863
183 41 32
184 41 1
185 41 470
186 41 805
187 41 299
188 40 650
189 40 318
190 40 233
191 40 263
192 40 890
193 40 930
194 40 608
195 40 904
196 40 757
197 40 142
198 40 235
199 40 366
200 40 188
201 39 521
202 39 174
203 39 808
204 39 978
205 39 254
206 39 931
207 39 869
208 39 66
209 39 721
210 39 780
211 39 373
212 39 239
213 39 139
214 39 617
215 39 925
216 39 41
217 39 259
218 38 744
219 38 127
220 38 68
221 38 874
222 38 899
223 38 273
224 38 564
225 38 831
226 38 511
227 38 73
228 38 252
229 38 376
230 38 527
231 38 11
232 37 335
233 37 553
234 37 719
235 37 962
236 37 88
237 37 195
238 37 684
239 37 234
240 37 561
241 37 705
242 37 781
243 37 377
244 37 169
245 37 773
246 37 276
247 36 772
248 36 592
249 36 693
250 36 844
251 36 301
252 36 979
253 36 95
254 36 288
255 36 155
256 36 506
257 36 351
258 36 693
259 36 963
260 36 549
261 36 860
262 35 345
263 35 141
264 35 383
265 35 241
266 35 742
267 35 705
268 35 541
269 35 737
270 35 789
271 35 531
272 35 620
273 35 940
274 35 201
275 35 366
276 35 961
277 35 151
278 35 307
279 35 329
280 34 458
281 34 760
282 34 972
283 34 952
284 34 144
285 34 38
286 34 213
287 34 247
288 34 521
289 34 517
290 33 491
291 33 982
292 33 933
293 33 708
294 33 779
295 33 96
296 33 551
297 33 62
298 33 45
299 33 941
300 33 413
301 33 714
302 32 546
303 32 840
304 32 33
305 32 422
306 32 257
307 32 626
308 32 867
309 32 448
310 32 228
311 32 130
312 32 930
313 32 704
314 31 49
315 31 849
316 31 856
317 31 394
318 31 147
319 31 506
320 31 825
321 31 502
322 31 35
323 31 680
324 31 485
325 31 400
326 31 510
327 31 785
328 31 752
329 31 941
330 31 385
331 31 871
332 30 798
333 30 718
334 30 452
335 30 510
336 30 341
337 30 130
338 30 52
339 30 978
340 30 234
341 30 841
342 30 643
343 30 525
344 30 899
345 30 392
346 30 318
347 29 307
348 29 898
349 29 948
350 29 721
351 29 302
352 29 939
353 29 535
354 29 233
355 29 738
356 29 141
357 29 176
358 29 327
359 29 221
360 29 780
361 29 542
362 29 431
363 29 623
364 28 446
365 28 616
366 28 528
367 28 294
368 28 724
369 28 774
370 28 658
371 28 241
372 28 552
373 28 985
374 28 586
375 28 50
376 28 539
377 28 475
378 28 15
379 28 731
380 28 334
381 28 926
382 28 864
383 28 85
384 27 162
385 27 318
386 27 144
387 27 314
388 27 867
389 27 486
390 27 60
391 27 509
392 27 622
393 27 129
394 27 821
395 27 768
396 27 81
397 27 848
398 27 53
399 27 304
400 27 214
401 27 998
402 27 95
403 27 345
404 27 705
405 27 474
406 27 546
407 26 2
408 26 645
409 26 626
410 26 251
411 26 373
412 26 707
413 26 740
414 26 198
415 26 464
416 26 269
417 26 806
418 26 811
419 26 941
420 26 923
421 26 532
422 26 886
423 26 397
424 26 996
425 25 326
426 25 273
427 25 812
428 25 499
429 25 365
430 25 542
431 25 428
432 25 225
433 25 161
434 25 35
435 25 81
436 25 375
437 24 486
438 24 527
439 24 606
440 24 401
441 24 557
442 24 75
443 24 428
444 24 637
445 24 912
446 24 698
447 24 443
448 24 173
449 24 978
450 24 500
451 24 579
452 24 724
453 24 81
454 24 42
455 24 681
456 23 60
457 23 363
458 23 537
459 23 974
460 23 274
461 23 781
462 23 444
463 23 558
464 23 44
465 23 812
466 23 834
467 23 840
468 23 911
469 23 242
470 23 762
471 23 831
472 23 236
473 23 383
474 23 518
475 23 717
476 23 208
477 23 303
478 22 549
479 22 990
480 22 485
481 22 330
482 22 798
483 22 810
484 22 673
485 22 753
486 22 705
487 22 813
488 22 657
489 22 463
490 22 305
491 22 983
492 22 794
493 22 717
494 22 351
495 22 102
496 22 240
497 22 949
498 22 938
499 22 477
500 22 123
501 22 576
502 21 886
503 21 57
504 21 935
505 21 443
506 21 360
507 21 622
508 21 685
509 21 886
510 21 874
511 21 801
512 21 802
513 21 804
514 21 249
515 21 705
516 21 354
517 21 962
518 21 171
519 21 548
520 21 764
521 21 376
522 20 771
523 20 525
524 20 936
525 20 373
526 20 836
527 20 261
528 20 390
529 20 328
530 20 505
531 20 685
532 20 429
533 20 138
534 20 882
535 20 898
536 20 206
537 20 285
538 20 529
539 20 828
540 20 965
541 19 248
542 19 355
543 19 183
544 19 262
545 19 512
546 19 443
547 19 996
548 19 307
549 19 913
550 19 499
551 19 954
552 19 89
553 19 464
554 19 151
555 19 443
556 19 295
557 19 308
558 19 188
559 19 920
560 18 535
561 18 62
562 18 842
563 18 988
564 18 276
565 18 617
566 18 792
567 18 583
568 18 445
569 18 726
570 18 222
571 18 905
572 18 511
573 18 259
574 18 665
575 18 226
576 18 640
577 18 554
578 18 130
579 18 432
580 18 49
581 18 785
582 18 313
583 18 840
584 17 661
585 17 389
586 17 173
587 17 853
588 17 31
589 17 379
590 17 136
591 17 106
592 17 660
593 17 367
594 17 164
595 17 564
596 17 447
597 16 313
598 16 430
599 16 686
600 16 1
601 16 567
602 16 948
603 16 621
604 16 530
605 15 366
606 15 142
607 15 380
608 15 661
609 15 201
610 15 732
611 15 246
612 15 540
613 15 601
614 15 234
615 15 310
616 15 228
617 15 138
618 15 162
619 15 446
620 15 843
621 14 436
622 14 658
623 14 245
624 14 153
625 14 28
626 14 475
627 14 787
628 14 524
629 14 724
630 14 802
631 14 256
632 14 90
633 14 144
634 14 705
635 14 102
636 14 655
637 14 683
638 14 383
639 13 785
640 13 453
641 13 908
642 13 161
643 13 636
644 13 736
645 13 392
646 13 825
647 13 948
648 13 616
649 13 440
650 13 882
651 13 134
652 13 68
653 13 789
654 13 62
655 13 682
656 13 257
657 13 864
658 13 176
659 13 66
660 13 960
661 13 919
662 12 936
663 12 298
664 12 59
665 12 994
666 12 832
667 12 718
668 12 770
669 11 645
670 11 276
671 11 305
672 11 333
673 11 85
674 11 951
675 11 857
676 11 830
677 11 911
678 11 877
679 11 833
680 11 493
681 11 66
682 11 111
683 11 543
684 10 592
685 10 86
686 10 992
687 10 996
688 10 884
689 10 414
690 10 465
691 10 4
692 10 434
693 10 742
694 10 177
695 10 465
696 10 385
697 10 7
698 10 793
699 10 152
700 10 285
701 10 891
702 10 762
703 9 93
704 9 59
705 9 670
706 9 745
707 9 537
708 9 616
709 9 973
710 9 775
711 9 50
712 9 763
713 9 525
714 9 487
715 9 142
716 9 459
717 9 267
718 9 718
719 9 380
720 8 918
721 8 996
722 8 897
723 8 591
724 8 74
725 8 491
726 8 424
727 8 231
728 8 590
729 8 379
730 7 148
731 7 805
732 7 343
733 7 849
734 7 467
735 7 705
736 7 961
737 7 639
738 7 812
739 7 411
740 7 397
741 7 459
742 7 633
743 7 485
744 7 559
745 7 25
746 7 886
747 7 732
748 7 799
749 7 280
750 7 410
