results/OOEBPP/BPP_750_75_0.1_0.7_6.txt.ins.log
181,180.919,68.0543,OPT,9296,0,0,AI,0,0.0276243,3.65193,0.584737,66.2408,0,2,0,191,188
